\ This file has been generated by DOcplex
\ ENCODING=ISO-8859-1
\Problem name: random_problem.lp

Minimize
 obj: - 508 x0 - 254 x1 - 127 x2 + 72 x3 + 36 x4 + 18 x5 + 516 x6 + 258 x7
      + 129 x8 + 428 x9 + 214 x10 + 107 x11 - 868 x12 - 434 x13 - 217 x14
      + 112 x15 + 56 x16 + 28 x17 - 1712 x18 - 856 x19 - 428 x20 + [ 704 x0^2
      + 704 x0*x1 + 352 x0*x2 + 2048 x0*x3 + 1024 x0*x4 + 512 x0*x5 + 2752 x0*x6
      + 1376 x0*x7 + 688 x0*x8 + 1536 x0*x9 + 768 x0*x10 + 384 x0*x11
      + 1984 x0*x12 + 992 x0*x13 + 496 x0*x14 + 1024 x0*x15 + 512 x0*x16
      + 256 x0*x17 + 2560 x0*x18 + 1280 x0*x19 + 640 x0*x20 + 176 x1^2
      + 176 x1*x2 + 1024 x1*x3 + 512 x1*x4 + 256 x1*x5 + 1376 x1*x6 + 688 x1*x7
      + 344 x1*x8 + 768 x1*x9 + 384 x1*x10 + 192 x1*x11 + 992 x1*x12
      + 496 x1*x13 + 248 x1*x14 + 512 x1*x15 + 256 x1*x16 + 128 x1*x17
      + 1280 x1*x18 + 640 x1*x19 + 320 x1*x20 + 44 x2^2 + 512 x2*x3 + 256 x2*x4
      + 128 x2*x5 + 688 x2*x6 + 344 x2*x7 + 172 x2*x8 + 384 x2*x9 + 192 x2*x10
      + 96 x2*x11 + 496 x2*x12 + 248 x2*x13 + 124 x2*x14 + 256 x2*x15
      + 128 x2*x16 + 64 x2*x17 + 640 x2*x18 + 320 x2*x19 + 160 x2*x20
      + 2848 x3^2 + 2848 x3*x4 + 1424 x3*x5 + 5568 x3*x6 + 2784 x3*x7
      + 1392 x3*x8 + 2752 x3*x9 + 1376 x3*x10 + 688 x3*x11 + 6400 x3*x12
      + 3200 x3*x13 + 1600 x3*x14 + 2432 x3*x15 + 1216 x3*x16 + 608 x3*x17
      + 5568 x3*x18 + 2784 x3*x19 + 1392 x3*x20 + 712 x4^2 + 712 x4*x5
      + 2784 x4*x6 + 1392 x4*x7 + 696 x4*x8 + 1376 x4*x9 + 688 x4*x10
      + 344 x4*x11 + 3200 x4*x12 + 1600 x4*x13 + 800 x4*x14 + 1216 x4*x15
      + 608 x4*x16 + 304 x4*x17 + 2784 x4*x18 + 1392 x4*x19 + 696 x4*x20
      + 178 x5^2 + 1392 x5*x6 + 696 x5*x7 + 348 x5*x8 + 688 x5*x9 + 344 x5*x10
      + 172 x5*x11 + 1600 x5*x12 + 800 x5*x13 + 400 x5*x14 + 608 x5*x15
      + 304 x5*x16 + 152 x5*x17 + 1392 x5*x18 + 696 x5*x19 + 348 x5*x20
      + 7776 x6^2 + 7776 x6*x7 + 3888 x6*x8 + 3328 x6*x9 + 1664 x6*x10
      + 832 x6*x11 + 7360 x6*x12 + 3680 x6*x13 + 1840 x6*x14 + 4672 x6*x15
      + 2336 x6*x16 + 1168 x6*x17 + 11328 x6*x18 + 5664 x6*x19 + 2832 x6*x20
      + 1944 x7^2 + 1944 x7*x8 + 1664 x7*x9 + 832 x7*x10 + 416 x7*x11
      + 3680 x7*x12 + 1840 x7*x13 + 920 x7*x14 + 2336 x7*x15 + 1168 x7*x16
      + 584 x7*x17 + 5664 x7*x18 + 2832 x7*x19 + 1416 x7*x20 + 486 x8^2
      + 832 x8*x9 + 416 x8*x10 + 208 x8*x11 + 1840 x8*x12 + 920 x8*x13
      + 460 x8*x14 + 1168 x8*x15 + 584 x8*x16 + 292 x8*x17 + 2832 x8*x18
      + 1416 x8*x19 + 708 x8*x20 + 4416 x9^2 + 4416 x9*x10 + 2208 x9*x11
      + 960 x9*x12 + 480 x9*x13 + 240 x9*x14 - 192 x9*x15 - 96 x9*x16
      - 48 x9*x17 + 1344 x9*x18 + 672 x9*x19 + 336 x9*x20 + 1104 x10^2
      + 1104 x10*x11 + 480 x10*x12 + 240 x10*x13 + 120 x10*x14 - 96 x10*x15
      - 48 x10*x16 - 24 x10*x17 + 672 x10*x18 + 336 x10*x19 + 168 x10*x20
      + 276 x11^2 + 240 x11*x12 + 120 x11*x13 + 60 x11*x14 - 48 x11*x15
      - 24 x11*x16 - 12 x11*x17 + 336 x11*x18 + 168 x11*x19 + 84 x11*x20
      + 13312 x12^2 + 13312 x12*x13 + 6656 x12*x14 + 4992 x12*x15 + 2496 x12*x16
      + 1248 x12*x17 + 6784 x12*x18 + 3392 x12*x19 + 1696 x12*x20 + 3328 x13^2
      + 3328 x13*x14 + 2496 x13*x15 + 1248 x13*x16 + 624 x13*x17 + 3392 x13*x18
      + 1696 x13*x19 + 848 x13*x20 + 832 x14^2 + 1248 x14*x15 + 624 x14*x16
      + 312 x14*x17 + 1696 x14*x18 + 848 x14*x19 + 424 x14*x20 + 2144 x15^2
      + 2144 x15*x16 + 1072 x15*x17 + 3392 x15*x18 + 1696 x15*x19 + 848 x15*x20
      + 536 x16^2 + 536 x16*x17 + 1696 x16*x18 + 848 x16*x19 + 424 x16*x20
      + 134 x17^2 + 848 x17*x18 + 424 x17*x19 + 212 x17*x20 + 12928 x18^2
      + 12928 x18*x19 + 6464 x18*x20 + 3232 x19^2 + 3232 x19*x20 + 808 x20^2 ]/2
Subject To
 c0: 4 x0 + 2 x1 + x2 + 4 x3 + 2 x4 + x5 + 4 x6 + 2 x7 + x8 + 4 x9 + 2 x10 + x11
     + 4 x12 + 2 x13 + x14 + 4 x15 + 2 x16 + x17 + 4 x18 + 2 x19 + x20 = 7

Bounds
 0 <= x0 <= 1
 0 <= x1 <= 1
 0 <= x2 <= 1
 0 <= x3 <= 1
 0 <= x4 <= 1
 0 <= x5 <= 1
 0 <= x6 <= 1
 0 <= x7 <= 1
 0 <= x8 <= 1
 0 <= x9 <= 1
 0 <= x10 <= 1
 0 <= x11 <= 1
 0 <= x12 <= 1
 0 <= x13 <= 1
 0 <= x14 <= 1
 0 <= x15 <= 1
 0 <= x16 <= 1
 0 <= x17 <= 1
 0 <= x18 <= 1
 0 <= x19 <= 1
 0 <= x20 <= 1

Binaries
 x0 x1 x2 x3 x4 x5 x6 x7 x8 x9 x10 x11 x12 x13 x14 x15 x16 x17 x18 x19 x20
End
